c File: instances/12_0.70_1.col
c
c Description: Random graph of size 12 vertices and P(0.7000000000000001) of edges between any two vertices.
p col 12 66
e 1 3
e 1 4
e 1 6
e 1 7
e 1 8
e 1 9
e 1 11
e 1 12
e 2 3
e 2 4
e 2 6
e 2 8
e 2 10
e 2 11
e 3 5
e 3 6
e 3 7
e 3 8
e 3 9
e 3 10
e 3 12
e 4 5
e 4 7
e 4 8
e 4 9
e 4 10
e 4 12
e 5 6
e 5 7
e 5 8
e 5 10
e 5 11
e 6 7
e 6 9
e 6 10
e 6 12
e 7 8
e 7 9
e 7 10
e 8 9
e 8 10
e 8 11
e 8 12
e 9 10
e 9 11
e 9 12
e 10 11
e 10 12
e 11 12